<number of tasks>
20


<number of equipment>
5


<cycle time>
1000


<investment costs>
1,7568
2,15214
3,8179
4,6294
5,8448


<task times>
1,611,-1,605,-1,615
2,624,-1,589,-1,605
3,-1,459,-1,651,617
4,-1,470,-1,642,567
5,-1,503,-1,598,577
6,-1,497,-1,307,546
7,617,-1,610,-1,616
8,633,-1,585,-1,607
9,-1,508,-1,-1,602
10,-1,590,-1,668,650
11,-1,460,-1,-1,549
12,546,-1,550,-1,582
13,-1,523,-1,606,610
14,610,-1,585,-1,588
15,607,-1,573,-1,533
16,638,-1,613,-1,617
17,610,-1,614,-1,581
18,-1,509,-1,-1,588
19,614,-1,584,-1,617
20,-1,466,-1,653,613


<precedence relations>
1,4
1,5
2,4
2,5
3,4
3,5
4,6
4,7
5,6
5,7
6,8
6,9
7,8
7,9
8,10
8,11
8,12
9,11
10,17
11,13
11,14
12,15
12,17
13,16
14,16
14,17
15,18
17,19
18,19
19,20


<task types>
1,3
2,3
3,2
4,2
5,2
6,2
7,3
8,3
9,1
10,2
11,1
12,3
13,2
14,3
15,3
16,3
17,3
18,1
19,3
20,2


<line depot>
1,10
2,1
3,0
4,5
5,2


<processing costs>
1,7200
2,14400
3,7200
4,7200
5,21600


<saving costs>
1,756
2,1521
3,817
4,629
5,844


<end>
